(declare-const a Real)
(declare-const b Real)
(declare-const c Real)
(assert (not (<= (+ (+ (* (sqrt (+ (^ (/ 1 2) 2) (^ (/ (^ b 2) 2) 2))) (sqrt (+ (^ (^ a 4) 2) (^ (^ c 2) 2)))) (* (* (^ b 2) c) a)) (* (* (^ c 2) a) b)) (+ (+ (^ a 4) (^ b 4)) (^ c 4)))))
(check-sat)
(get-model)